(set-option :print-success false)
(set-logic QF_UF)
(declare-sort x105 0)
(declare-sort x107 0)
(declare-fun x147 (x107 x107) x107)
(declare-fun x96 () x107)
(declare-fun x2 () x107)
(declare-fun x78 () x107)
(declare-fun x152 (x107 x107) x107)
(declare-fun x25 () x107)
(declare-fun x106 () x107)
(assert (and (and (not (= x2 x96)) (and (and (not (= x106 x96)) (and (and (and (not (= x96 x25)) (and (and (not (= x106 x25)) (not (= x2 x25))) (not (= x25 x78)))) (not (= x2 x106))) (not (= x78 x106)))) (not (= x2 x78)))) (not (= x78 x96))))
(assert (not (and (= (x147 x96 x96) x25) (and (and (= x2 (x147 x96 x2)) (and (and (= x78 (x147 x96 x25)) (and (= x106 (x147 x78 x96)) (and (= (x147 x78 x78) x2) (and (and (= x25 (x147 x78 x106)) (and (= x96 (x147 x78 x25)) (and (and (and (and (and (= x2 (x147 x2 x25)) (and (and (= x25 (x147 x106 x78)) (and (and (and (= x106 (x147 x106 x25)) (and (and (= x96 (x147 x25 x78)) (and (= x106 (x147 x25 x2)) (and (= (x147 x25 x106) x78) (= x25 (x147 x25 x25))))) (= (x147 x25 x96) x2))) (= (x147 x106 x106) x2)) (= (x147 x106 x2) x96))) (= x78 (x147 x106 x96)))) (= x106 (x147 x2 x106))) (= (x147 x2 x2) x25)) (= (x147 x2 x78) x78)) (= x96 (x147 x2 x96))))) (= x78 (x147 x78 x2)))))) (= (x147 x96 x106) x96))) (= (x147 x96 x78) x106)))))
(assert (let ((x98 (x147 x2 x106)) (x61 (x147 x78 x2)) (x124 (x147 x106 x2)) (x142 (x147 x78 x106)) (x83 (x147 x78 x96)) (x104 (x147 x25 x96)) (x66 (x147 x106 x96)) (x103 (x147 x2 x2)) (x139 (x147 x96 x25)) (x31 (x147 x2 x25)) (x1 (x147 x25 x78)) (x44 (x147 x2 x78)) (x138 (x147 x78 x78)) (x144 (x147 x96 x106)) (x153 (x147 x78 x25)) (x86 (x147 x96 x78)) (x35 (x147 x2 x96)) (x15 (x147 x25 x25)) (x150 (x147 x106 x25)) (x40 (x147 x106 x78)) (x93 (x147 x96 x2)) (x7 (x147 x25 x2)) (x53 (x147 x106 x106)) (x119 (x147 x25 x106)) (x9 (x147 x96 x96))) (and (and (and (and (and (and (and (and (or (or (or (= x15 x2) (or (= x15 x106) (= x15 x25))) (= x78 x15)) (= x15 x96)) (or (= x119 x96) (or (= x78 x119) (or (= x119 x2) (or (= x119 x25) (= x106 x119)))))) (or (or (or (= x7 x2) (or (= x7 x106) (= x25 x7))) (= x78 x7)) (= x96 x7))) (or (or (or (= x2 x1) (or (= x1 x25) (= x1 x106))) (= x1 x78)) (= x1 x96))) (or (= x104 x96) (or (or (= x2 x104) (or (= x106 x104) (= x25 x104))) (= x104 x78)))) (and (or (= x66 x96) (or (= x78 x66) (or (or (= x66 x106) (= x66 x25)) (= x2 x66)))) (and (and (or (or (= x78 x124) (or (= x2 x124) (or (= x124 x106) (= x25 x124)))) (= x96 x124)) (and (or (= x96 x53) (or (= x78 x53) (or (= x2 x53) (or (= x53 x25) (= x53 x106))))) (or (= x150 x96) (or (= x150 x78) (or (= x150 x2) (or (= x150 x25) (= x106 x150))))))) (or (or (= x78 x40) (or (= x2 x40) (or (= x106 x40) (= x25 x40)))) (= x40 x96))))) (and (or (or (or (= x2 x35) (or (= x25 x35) (= x35 x106))) (= x35 x78)) (= x96 x35)) (and (or (= x44 x96) (or (= x78 x44) (or (= x44 x2) (or (= x106 x44) (= x25 x44))))) (and (or (or (= x78 x103) (or (or (= x103 x106) (= x25 x103)) (= x103 x2))) (= x103 x96)) (and (or (or (or (or (= x98 x106) (= x98 x25)) (= x2 x98)) (= x98 x78)) (= x96 x98)) (or (= x96 x31) (or (or (= x31 x2) (or (= x106 x31) (= x31 x25))) (= x78 x31)))))))) (and (and (and (and (or (or (= x78 x142) (or (= x2 x142) (or (= x142 x25) (= x106 x142)))) (= x142 x96)) (or (or (= x78 x153) (or (= x153 x2) (or (= x153 x25) (= x153 x106)))) (= x96 x153))) (or (= x61 x96) (or (= x61 x78) (or (or (= x61 x106) (= x25 x61)) (= x2 x61))))) (or (= x138 x96) (or (or (or (= x138 x106) (= x138 x25)) (= x2 x138)) (= x138 x78)))) (or (= x83 x96) (or (or (= x2 x83) (or (= x83 x25) (= x106 x83))) (= x78 x83))))) (and (and (and (or (or (or (= x2 x93) (or (= x106 x93) (= x25 x93))) (= x78 x93)) (= x96 x93)) (and (or (or (= x78 x139) (or (= x139 x2) (or (= x139 x25) (= x139 x106)))) (= x96 x139)) (or (or (= x78 x144) (or (or (= x144 x25) (= x106 x144)) (= x2 x144))) (= x96 x144)))) (or (= x86 x96) (or (= x78 x86) (or (= x86 x2) (or (= x106 x86) (= x25 x86)))))) (or (= x9 x96) (or (or (or (= x106 x9) (= x9 x25)) (= x9 x2)) (= x78 x9)))))))
(assert (and (and (= x2 (x147 x25 x96)) (and (= x106 (x147 x78 x96)) (= x25 (x147 x96 x96)))) (= x78 (x147 x96 x25))))
(assert (and (and (and (or (= (x147 x96 (x147 x2 x96)) x2) (or (or (or (= x2 (x147 x25 (x147 x2 x25))) (= (x147 x106 (x147 x2 x106)) x2)) (= x2 (x147 x2 (x147 x2 x2)))) (= x2 (x147 x78 (x147 x2 x78))))) (and (or (or (= (x147 x78 (x147 x106 x78)) x106) (or (or (= (x147 x25 (x147 x106 x25)) x106) (= (x147 x106 (x147 x106 x106)) x106)) (= x106 (x147 x2 (x147 x106 x2))))) (= x106 (x147 x96 (x147 x106 x96)))) (or (or (or (or (= x25 (x147 x106 (x147 x25 x106))) (= (x147 x25 (x147 x25 x25)) x25)) (= x25 (x147 x2 (x147 x25 x2)))) (= x25 (x147 x78 (x147 x25 x78)))) (= (x147 x96 (x147 x25 x96)) x25)))) (or (= x78 (x147 x96 (x147 x78 x96))) (or (or (or (= (x147 x106 (x147 x78 x106)) x78) (= x78 (x147 x25 (x147 x78 x25)))) (= (x147 x2 (x147 x78 x2)) x78)) (= x78 (x147 x78 (x147 x78 x78)))))) (or (or (= (x147 x78 (x147 x96 x78)) x96) (or (= (x147 x2 (x147 x96 x2)) x96) (or (= x96 (x147 x25 (x147 x96 x25))) (= (x147 x106 (x147 x96 x106)) x96)))) (= x96 (x147 x96 (x147 x96 x96))))))
(assert (and (or (or (= x78 (x147 (x147 x96 x78) x96)) (or (= x2 (x147 (x147 x96 x2) x96)) (or (= x25 (x147 (x147 x96 x25) x96)) (= (x147 (x147 x96 x106) x96) x106)))) (= x96 (x147 (x147 x96 x96) x96))) (and (or (or (= x78 (x147 (x147 x78 x78) x78)) (or (= x2 (x147 (x147 x78 x2) x78)) (or (= x25 (x147 (x147 x78 x25) x78)) (= (x147 (x147 x78 x106) x78) x106)))) (= x96 (x147 (x147 x78 x96) x78))) (and (or (= x96 (x147 (x147 x2 x96) x2)) (or (or (or (= x25 (x147 (x147 x2 x25) x2)) (= x106 (x147 (x147 x2 x106) x2))) (= x2 (x147 (x147 x2 x2) x2))) (= x78 (x147 (x147 x2 x78) x2)))) (and (or (or (or (or (= (x147 (x147 x25 x25) x25) x25) (= (x147 (x147 x25 x106) x25) x106)) (= x2 (x147 (x147 x25 x2) x25))) (= (x147 (x147 x25 x78) x25) x78)) (= x96 (x147 (x147 x25 x96) x25))) (or (= (x147 (x147 x106 x96) x106) x96) (or (or (= x2 (x147 (x147 x106 x2) x106)) (or (= x25 (x147 (x147 x106 x25) x106)) (= (x147 (x147 x106 x106) x106) x106))) (= (x147 (x147 x106 x78) x106) x78))))))))
(assert (or (or (and (not (= (x147 (x147 x96 x78) x96) x78)) (and (not (= x78 (x147 (x147 x78 x78) x78))) (and (not (= (x147 (x147 x2 x78) x2) x78)) (and (not (= (x147 (x147 x25 x78) x25) x78)) (not (= x78 (x147 (x147 x106 x78) x106))))))) (or (or (and (not (= (x147 (x147 x96 x106) x96) x106)) (and (and (not (= x106 (x147 (x147 x2 x106) x2))) (and (not (= (x147 (x147 x25 x106) x25) x106)) (not (= x106 (x147 (x147 x106 x106) x106))))) (not (= (x147 (x147 x78 x106) x78) x106)))) (and (not (= (x147 (x147 x96 x25) x96) x25)) (and (and (not (= (x147 (x147 x2 x25) x2) x25)) (and (not (= (x147 (x147 x106 x25) x106) x25)) (not (= x25 (x147 (x147 x25 x25) x25))))) (not (= (x147 (x147 x78 x25) x78) x25))))) (and (not (= x2 (x147 (x147 x96 x2) x96))) (and (not (= x2 (x147 (x147 x78 x2) x78))) (and (and (not (= (x147 (x147 x106 x2) x106) x2)) (not (= (x147 (x147 x25 x2) x25) x2))) (not (= (x147 (x147 x2 x2) x2) x2))))))) (and (and (not (= x96 (x147 (x147 x78 x96) x78))) (and (not (= x96 (x147 (x147 x2 x96) x2))) (and (not (= x96 (x147 (x147 x25 x96) x25))) (not (= (x147 (x147 x106 x96) x106) x96))))) (not (= (x147 (x147 x96 x96) x96) x96)))))
(assert (let ((x1 (x147 x78 x78)) (x104 (x147 x96 x96)) (x7 (x147 x2 x2)) (x119 (x147 x106 x106)) (x15 (x147 x25 x25))) (or (and (not (= x96 x104)) (and (not (= x1 x96)) (and (and (not (= x15 x96)) (not (= x96 x119))) (not (= x96 x7))))) (or (or (and (not (= x2 x104)) (and (and (and (not (= x2 x15)) (not (= x119 x2))) (not (= x2 x7))) (not (= x2 x1)))) (or (and (not (= x104 x106)) (and (and (not (= x7 x106)) (and (not (= x119 x106)) (not (= x106 x15)))) (not (= x1 x106)))) (and (and (and (not (= x25 x7)) (and (not (= x25 x15)) (not (= x119 x25)))) (not (= x1 x25))) (not (= x25 x104))))) (and (not (= x78 x104)) (and (not (= x1 x78)) (and (not (= x78 x7)) (and (not (= x15 x78)) (not (= x78 x119))))))))))
(assert (let ((x144 (x147 x106 x96)) (x135 (x147 x96 x106)) (x52 (x147 x96 x78)) (x149 (x147 x96 x96)) (x104 (x147 x25 x78)) (x150 (x147 x25 x96)) (x60 (x147 x2 x2)) (x40 (x147 x2 x25)) (x7 (x147 x25 x106)) (x83 (x147 x106 x2)) (x119 (x147 x25 x25)) (x139 (x147 x106 x78)) (x1 (x147 x25 x2)) (x66 (x147 x78 x25)) (x130 (x147 x78 x78)) (x16 (x147 x78 x96)) (x94 (x147 x78 x2)) (x30 (x147 x96 x2)) (x85 (x147 x2 x96)) (x124 (x147 x106 x25)) (x31 (x147 x96 x25)) (x56 (x147 x78 x106)) (x138 (x147 x106 x106)) (x4 (x147 x2 x78)) (x9 (x147 x2 x106))) (let ((x99 (= x78 x138)) (x71 (= x96 x4)) (x118 (= x78 x60)) (x23 (= x96 x7)) (x153 (= x7 x25)) (x45 (= x31 x96)) (x97 (= x144 x2)) (x151 (= x25 x83)) (x6 (= x40 x2)) (x132 (= x56 x25)) (x41 (= x144 x78)) (x111 (= x106 x149)) (x37 (= x25 x16)) (x42 (= x85 x2)) (x113 (= x66 x106)) (x155 (= x78 x83)) (x80 (= x78 x4)) (x27 (= x78 x30)) (x159 (= x96 x130)) (x24 (= x2 x16)) (x136 (= x106 x130)) (x62 (= x106 x60)) (x69 (= x96 x139)) (x11 (= x78 x85)) (x110 (= x83 x106)) (x75 (= x4 x106)) (x49 (= x106 x52)) (x120 (= x106 x144)) (x67 (= x139 x2)) (x86 (= x138 x106)) (x18 (= x104 x25)) (x33 (= x85 x25)) (x5 (= x2 x138)) (x88 (= x139 x78)) (x137 (= x56 x78)) (x3 (= x150 x78)) (x122 (= x9 x96)) (x39 (= x25 x94)) (x10 (= x1 x25)) (x57 (= x106 x30)) (x133 (= x4 x25)) (x36 (= x16 x106)) (x15 (= x25 x119)) (x156 (= x135 x106)) (x79 (= x16 x96)) (x100 (= x150 x106)) (x22 (= x25 x149)) (x154 (= x25 x40)) (x19 (= x78 x9)) (x108 (= x135 x96)) (x58 (= x83 x96)) (x158 (= x106 x85)) (x38 (= x2 x1)) (x32 (= x60 x96)) (x51 (= x2 x94)) (x21 (= x130 x2)) (x128 (= x78 x130)) (x35 (= x124 x25)) (x116 (= x78 x104)) (x46 (= x4 x2)) (x142 (= x138 x25)) (x29 (= x30 x25)) (x65 (= x83 x2)) (x146 (= x31 x106)) (x76 (= x9 x25)) (x13 (= x7 x2)) (x47 (= x25 x130)) (x92 (= x56 x2)) (x98 (= x119 x2)) (x55 (= x144 x96)) (x112 (= x1 x96)) (x82 (= x78 x149)) (x103 (= x78 x119)) (x129 (= x104 x2)) (x20 (= x25 x31)) (x101 (= x66 x78)) (x17 (= x2 x135)) (x12 (= x52 x25)) (x93 (= x106 x7)) (x48 (= x25 x139)) (x63 (= x56 x106)) (x68 (= x78 x94)) (x90 (= x2 x124)) (x114 (= x2 x66)) (x72 (= x135 x78)) (x125 (= x94 x96)) (x44 (= x96 x119)) (x157 (= x25 x135)) (x8 (= x96 x66)) (x84 (= x52 x2)) (x26 (= x96 x85)) (x54 (= x78 x31)) (x95 (= x106 x9)) (x115 (= x2 x150)) (x141 (= x40 x106)) (x102 (= x60 x25)) (x109 (= x150 x96)) (x127 (= x1 x106)) (x134 (= x40 x78)) (x53 (= x106 x119)) (x74 (= x144 x25)) (x140 (= x1 x78)) (x64 (= x96 x124)) (x126 (= x25 x150)) (x28 (= x60 x2)) (x117 (= x96 x56)) (x91 (= x106 x94)) (x14 (= x104 x106)) (x121 (= x52 x78)) (x34 (= x96 x149)) (x148 (= x96 x52)) (x81 (= x149 x2)) (x87 (= x78 x124)) (x43 (= x2 x31)) (x70 (= x2 x30)) (x73 (= x78 x16)) (x61 (= x106 x124)) (x59 (= x9 x2)) (x131 (= x138 x96)) (x143 (= x96 x30)) (x145 (= x40 x96)) (x50 (= x25 x66)) (x77 (= x104 x96)) (x89 (= x139 x106)) (x123 (= x7 x78))) (and (and (and (and (and (and (and (or (or (or x134 (or x87 x103)) x101) x54) (or (or (or x140 (or x123 x103)) x116) x3)) (and (and (or (or x129 (or (or x13 x98) x38)) x115) (or (or x114 (or (or x98 x90) x6)) x43)) (and (and (or x100 (or x14 (or (or x53 x93) x127))) (or (or (or (or x53 x61) x141) x113) x146)) (and (or (or x50 (or x154 (or x35 x15))) x20) (or (or x18 (or (or x153 x15) x10)) x126))))) (and (or (or (or x112 (or x44 x23)) x77) x109) (or (or x8 (or (or x64 x44) x145)) x45))) (and (and (or (or x69 (or x58 (or x131 x64))) x55) (or (or (or (or x23 x131) x122) x117) x108)) (and (and (and (or (or x92 (or (or x5 x13) x59)) x17) (or (or (or (or x5 x90) x65) x67) x97)) (and (and (or (or (or x76 (or x153 x142)) x132) x157) (or (or (or x151 (or x35 x142)) x48) x74)) (and (or x120 (or x89 (or x110 (or x86 x61)))) (or x156 (or (or x95 (or x86 x93)) x63))))) (and (or x41 (or x88 (or (or x87 x99) x155))) (or x72 (or (or (or x99 x123) x19) x137)))))) (and (and (or (or (or x32 (or x58 x112)) x125) x143) (or (or x71 (or (or x122 x145) x32)) x26)) (and (and (and (and (or (or x91 (or (or x127 x110) x62)) x57) (or (or (or x62 (or x141 x95)) x75) x158)) (and (or x29 (or (or (or x10 x151) x102) x39)) (or (or (or (or x76 x154) x102) x133) x33))) (and (or x42 (or (or (or x59 x6) x28) x46)) (or (or x51 (or (or x38 x65) x28)) x70))) (and (or (or (or (or x140 x155) x118) x68) x27) (or (or (or x118 (or x134 x19)) x80) x11))))) (and (and (or (or (or x125 (or x117 x8)) x159) x79) (or x148 (or x159 (or (or x77 x69) x71)))) (and (and (and (or x24 (or x21 (or x51 (or x92 x114)))) (or (or (or x46 (or x129 x67)) x21) x84)) (and (and (or x36 (or x136 (or (or x113 x63) x91))) (or (or x136 (or x75 (or x89 x14))) x49)) (and (or x37 (or x47 (or x39 (or x50 x132)))) (or x12 (or (or x133 (or x18 x48)) x47))))) (and (or (or (or x68 (or x137 x101)) x128) x73) (or x121 (or x128 (or x80 (or x116 x88)))))))) (and (and (or x34 (or (or (or x55 x109) x26) x79)) (or x34 (or x148 (or (or x45 x108) x143)))) (and (and (or (or (or (or x54 x72) x27) x121) x82) (or x82 (or x73 (or (or x3 x41) x11)))) (and (and (or x81 (or (or (or x97 x115) x42) x24)) (or (or (or (or x17 x43) x70) x84) x81)) (and (and (or x22 (or (or (or x126 x74) x33) x37)) (or x22 (or (or x29 (or x157 x20)) x12))) (and (or (or (or (or x120 x100) x158) x36) x111) (or (or x49 (or x57 (or x146 x156))) x111))))))))))
(assert (or (or (and (not (= x96 (x147 x78 (x147 x78 x96)))) (and (not (= x78 (x147 x78 (x147 x78 x78)))) (and (and (not (= x106 (x147 x78 (x147 x78 x106)))) (not (= x25 (x147 x78 (x147 x78 x25))))) (not (= x2 (x147 x78 (x147 x78 x2))))))) (or (and (and (and (not (= (x147 x2 (x147 x2 x2)) x2)) (and (not (= x106 (x147 x2 (x147 x2 x106)))) (not (= x25 (x147 x2 (x147 x2 x25)))))) (not (= (x147 x2 (x147 x2 x78)) x78))) (not (= (x147 x2 (x147 x2 x96)) x96))) (or (and (and (not (= (x147 x25 (x147 x25 x78)) x78)) (and (not (= (x147 x25 (x147 x25 x2)) x2)) (and (not (= (x147 x25 (x147 x25 x106)) x106)) (not (= x25 (x147 x25 (x147 x25 x25))))))) (not (= (x147 x25 (x147 x25 x96)) x96))) (and (not (= (x147 x106 (x147 x106 x96)) x96)) (and (not (= x78 (x147 x106 (x147 x106 x78)))) (and (not (= (x147 x106 (x147 x106 x2)) x2)) (and (not (= (x147 x106 (x147 x106 x25)) x25)) (not (= x106 (x147 x106 (x147 x106 x106))))))))))) (and (not (= (x147 x96 (x147 x96 x96)) x96)) (and (not (= x78 (x147 x96 (x147 x96 x78)))) (and (and (not (= (x147 x96 (x147 x96 x106)) x106)) (not (= x25 (x147 x96 (x147 x96 x25))))) (not (= (x147 x96 (x147 x96 x2)) x2)))))))
(assert (or (or (or (= (x147 x2 x2) x2) (or (= x106 (x147 x106 x106)) (= x25 (x147 x25 x25)))) (= x78 (x147 x78 x78))) (= (x147 x96 x96) x96)))
(assert (let ((x40 (x147 x2 x2)) (x98 (x147 x78 x106)) (x153 (x147 x78 x78)) (x7 (x147 x25 x106)) (x103 (x147 x106 x78)) (x35 (x147 x2 x78)) (x150 (x147 x25 x2)) (x142 (x147 x96 x25)) (x86 (x147 x78 x96)) (x119 (x147 x106 x25)) (x66 (x147 x78 x25)) (x1 (x147 x106 x106)) (x9 (x147 x96 x96)) (x15 (x147 x25 x25)) (x31 (x147 x25 x78)) (x138 (x147 x96 x106)) (x83 (x147 x106 x96)) (x139 (x147 x96 x2)) (x61 (x147 x25 x96)) (x44 (x147 x78 x2)) (x104 (x147 x2 x25)) (x93 (x147 x96 x78)) (x144 (x147 x2 x96)) (x53 (x147 x2 x106)) (x124 (x147 x106 x2))) (or (or (or (or (and (and (and (= x124 x53) (and (= x1 x1) (= x7 x119))) (= x103 x98)) (= x138 x83)) (and (and (and (and (= x119 x7) (= x15 x15)) (= x104 x150)) (= x31 x66)) (= x61 x142))) (and (and (= x44 x35) (and (= x40 x40) (and (= x104 x150) (= x124 x53)))) (= x144 x139))) (and (and (and (and (= x31 x66) (= x98 x103)) (= x35 x44)) (= x153 x153)) (= x93 x86))) (and (and (= x86 x93) (and (= x139 x144) (and (= x142 x61) (= x83 x138)))) (= x9 x9)))))
(assert (let ((x104 (x147 x78 x78)) (x1 (x147 x2 x2)) (x7 (x147 x106 x106)) (x150 (x147 x96 x96)) (x119 (x147 x25 x25))) (let ((x35 (= x96 x150)) (x44 (= x78 x104)) (x124 (= x7 x106)) (x15 (= x25 x119)) (x103 (= x2 x1))) (let ((x98 (and (not x35) (and (not (= x96 x104)) (and (not (= x1 x96)) (and (not (= x119 x96)) (not (= x96 x7))))))) (x66 (and (not (= x150 x2)) (and (and (and (not (= x2 x119)) (not (= x2 x7))) (not x103)) (not (= x2 x104))))) (x40 (and (not (= x150 x106)) (and (and (and (not (= x106 x119)) (not x124)) (not (= x1 x106))) (not (= x106 x104))))) (x53 (and (and (and (not (= x1 x25)) (and (not (= x25 x7)) (not x15))) (not (= x25 x104))) (not (= x25 x150)))) (x31 (and (not (= x78 x150)) (and (and (and (not (= x119 x78)) (not (= x7 x78))) (not (= x78 x1))) (not x44))))) (and (or (or (or (or (and x31 x44) (or (or (and (= (x147 x78 x106) x78) x40) (and x53 (= (x147 x78 x25) x78))) (and x66 (= (x147 x78 x2) x78)))) (and (= (x147 x78 x96) x78) x98)) (or (or (and x98 (= (x147 x2 x96) x2)) (or (or (or (and x53 (= x2 (x147 x2 x25))) (and (= (x147 x2 x106) x2) x40)) (and x66 x103)) (and (= x2 (x147 x2 x78)) x31))) (or (or (and (= (x147 x106 x96) x106) x98) (or (or (or (and x124 x40) (and x53 (= x106 (x147 x106 x25)))) (and x66 (= x106 (x147 x106 x2)))) (and (= x106 (x147 x106 x78)) x31))) (or (or (and x31 (= (x147 x25 x78) x25)) (or (or (and x40 (= x25 (x147 x25 x106))) (and x53 x15)) (and x66 (= x25 (x147 x25 x2))))) (and (= (x147 x25 x96) x25) x98))))) (or (or (and x31 (= x96 (x147 x96 x78))) (or (or (and (= x96 (x147 x96 x106)) x40) (and x53 (= x96 (x147 x96 x25)))) (and x66 (= (x147 x96 x2) x96)))) (and x35 x98))) (and (or (or (= (x147 x78 x150) x78) (or (= x2 (x147 x2 x150)) (or (= (x147 x25 x150) x25) (= (x147 x106 x150) x106)))) (= x96 (x147 x96 x150))) (and (or (or (= (x147 x78 x104) x78) (or (= (x147 x2 x104) x2) (or (= (x147 x25 x104) x25) (= x106 (x147 x106 x104))))) (= (x147 x96 x104) x96)) (and (and (or (= (x147 x96 x119) x96) (or (or (= (x147 x2 x119) x2) (or (= x106 (x147 x106 x119)) (= (x147 x25 x119) x25))) (= x78 (x147 x78 x119)))) (or (or (= (x147 x78 x7) x78) (or (= (x147 x2 x7) x2) (or (= (x147 x25 x7) x25) (= x106 (x147 x106 x7))))) (= x96 (x147 x96 x7)))) (or (or (or (or (= x106 (x147 x106 x1)) (= x25 (x147 x25 x1))) (= x2 (x147 x2 x1))) (= x78 (x147 x78 x1))) (= (x147 x96 x1) x96))))))))))
(assert (let ((x1 (x147 x78 x25)) (x119 (x147 x106 x25)) (x31 (x147 x25 x2)) (x104 (x147 x96 x25)) (x7 (x147 x2 x25)) (x40 (x147 x78 x106)) (x98 (x147 x106 x2)) (x35 (x147 x96 x2)) (x9 (x147 x96 x96)) (x144 (x147 x106 x96)) (x142 (x147 x106 x78)) (x66 (x147 x96 x106)) (x44 (x147 x78 x2)) (x124 (x147 x2 x106)) (x93 (x147 x2 x96)) (x86 (x147 x78 x96)) (x61 (x147 x2 x78)) (x53 (x147 x106 x106)) (x139 (x147 x25 x96)) (x153 (x147 x25 x78)) (x83 (x147 x96 x78)) (x138 (x147 x78 x78)) (x103 (x147 x2 x2)) (x150 (x147 x25 x106)) (x15 (x147 x25 x25))) (and (and (and (and (and (and (and (not (= x31 x139)) (and (not (= x31 x153)) (and (not (= x139 x150)) (and (and (not (= x150 x31)) (and (not (= x139 x15)) (and (and (not (= x15 x150)) (not (= x31 x15))) (not (= x15 x153))))) (not (= x150 x153)))))) (not (= x153 x139))) (and (and (and (and (not (= x53 x144)) (and (not (= x53 x142)) (and (and (and (and (not (= x119 x53)) (not (= x119 x98))) (not (= x119 x142))) (not (= x119 x144))) (not (= x98 x53))))) (not (= x98 x142))) (not (= x98 x144))) (not (= x142 x144)))) (and (and (and (not (= x103 x61)) (and (not (= x93 x124)) (and (and (not (= x124 x103)) (and (not (= x7 x93)) (and (and (not (= x7 x103)) (not (= x7 x124))) (not (= x7 x61))))) (not (= x124 x61))))) (not (= x103 x93))) (not (= x93 x61)))) (and (not (= x138 x86)) (and (not (= x44 x86)) (and (and (not (= x86 x40)) (and (and (not (= x44 x40)) (and (and (and (not (= x1 x40)) (not (= x1 x44))) (not (= x1 x138))) (not (= x1 x86)))) (not (= x138 x40)))) (not (= x44 x138)))))) (and (not (= x83 x9)) (and (not (= x35 x9)) (and (not (= x83 x35)) (and (and (and (and (and (and (not (= x66 x104)) (not (= x104 x35))) (not (= x83 x104))) (not (= x104 x9))) (not (= x66 x35))) (not (= x83 x66))) (not (= x9 x66))))))) (and (and (and (and (not (= x86 x93)) (and (and (not (= x86 x144)) (and (and (not (= x139 x9)) (and (and (not (= x93 x139)) (not (= x144 x139))) (not (= x139 x86)))) (not (= x144 x93)))) (not (= x9 x144)))) (not (= x9 x93))) (not (= x9 x86))) (and (and (not (= x83 x138)) (and (not (= x61 x83)) (and (and (and (and (not (= x61 x142)) (and (not (= x153 x83)) (and (and (not (= x142 x153)) (not (= x61 x153))) (not (= x153 x138))))) (not (= x142 x138))) (not (= x83 x142))) (not (= x61 x138))))) (and (and (not (= x44 x35)) (and (not (= x35 x103)) (and (not (= x103 x44)) (and (not (= x35 x98)) (and (not (= x44 x98)) (and (not (= x103 x98)) (and (not (= x31 x35)) (and (not (= x31 x44)) (and (not (= x31 x98)) (not (= x31 x103))))))))))) (and (and (not (= x1 x104)) (and (not (= x104 x7)) (and (not (= x7 x1)) (and (and (not (= x1 x119)) (and (and (and (not (= x1 x15)) (and (not (= x7 x15)) (not (= x15 x119)))) (not (= x104 x15))) (not (= x119 x7)))) (not (= x119 x104)))))) (and (not (= x66 x40)) (and (not (= x66 x124)) (and (not (= x40 x124)) (and (and (not (= x40 x53)) (and (not (= x124 x53)) (and (not (= x150 x66)) (and (and (not (= x124 x150)) (not (= x150 x53))) (not (= x40 x150)))))) (not (= x53 x66)))))))))))))
(assert (let ((x23 (x147 x96 x25)) (x13 (x147 x106 x25)) (x65 (x147 x96 x2)) (x38 (x147 x2 x96)) (x94 (x147 x2 x2)) (x123 (x147 x25 x78)) (x102 (x147 x2 x106)) (x56 (x147 x25 x25)) (x5 (x147 x25 x2)) (x141 (x147 x106 x78)) (x145 (x147 x78 x78)) (x60 (x147 x106 x96)) (x87 (x147 x2 x25)) (x151 (x147 x106 x2)) (x64 (x147 x25 x96)) (x90 (x147 x25 x106)) (x99 (x147 x78 x25)) (x58 (x147 x96 x78)) (x6 (x147 x2 x78)) (x95 (x147 x78 x106)) (x76 (x147 x106 x106)) (x4 (x147 x96 x106)) (x112 (x147 x78 x96)) (x59 (x147 x78 x2)) (x113 (x147 x96 x96))) (let ((x14 (= x76 x2)) (x70 (= x56 x96)) (x138 (= x4 x25)) (x136 (= x2 x102)) (x11 (= x59 x96)) (x3 (= x95 x96)) (x115 (= x90 x96)) (x45 (= x96 x23)) (x68 (= x2 x64)) (x75 (= x5 x2)) (x16 (= x90 x2)) (x63 (= x106 x113)) (x30 (= x94 x106)) (x10 (= x76 x106)) (x101 (= x145 x2)) (x126 (= x78 x94)) (x53 (= x102 x25)) (x54 (= x151 x96)) (x74 (= x99 x78)) (x24 (= x96 x5)) (x148 (= x60 x96)) (x19 (= x106 x95)) (x36 (= x78 x38)) (x129 (= x95 x2)) (x34 (= x96 x113)) (x156 (= x78 x6)) (x82 (= x145 x96)) (x40 (= x25 x94)) (x116 (= x4 x2)) (x143 (= x4 x96)) (x111 (= x58 x78)) (x137 (= x2 x23)) (x66 (= x99 x25)) (x130 (= x13 x2)) (x32 (= x106 x23)) (x118 (= x6 x106)) (x120 (= x78 x60)) (x93 (= x58 x25)) (x49 (= x78 x23)) (x80 (= x65 x2)) (x84 (= x96 x13)) (x72 (= x96 x94)) (x46 (= x2 x59)) (x125 (= x2 x113)) (x27 (= x99 x96)) (x119 (= x13 x25)) (x134 (= x106 x123)) (x79 (= x112 x96)) (x108 (= x64 x96)) (x140 (= x141 x106)) (x114 (= x2 x94)) (x52 (= x151 x2)) (x85 (= x106 x87)) (x33 (= x123 x78)) (x48 (= x106 x38)) (x61 (= x64 x25)) (x155 (= x106 x59)) (x117 (= x2 x112)) (x157 (= x78 x5)) (x91 (= x2 x56)) (x88 (= x2 x60)) (x110 (= x106 x102)) (x22 (= x141 x78)) (x104 (= x25 x87)) (x150 (= x25 x5)) (x98 (= x95 x25)) (x12 (= x78 x151)) (x26 (= x58 x96)) (x142 (= x25 x23)) (x57 (= x78 x145)) (x47 (= x112 x106)) (x109 (= x96 x65)) (x121 (= x123 x96)) (x103 (= x141 x25)) (x50 (= x106 x64)) (x67 (= x141 x2)) (x127 (= x5 x106)) (x158 (= x78 x65)) (x21 (= x6 x2)) (x18 (= x65 x106)) (x7 (= x90 x25)) (x62 (= x151 x106)) (x144 (= x25 x38)) (x83 (= x60 x25)) (x39 (= x106 x60)) (x1 (= x76 x25)) (x128 (= x38 x2)) (x9 (= x25 x113)) (x15 (= x56 x25)) (x42 (= x87 x96)) (x71 (= x78 x90)) (x159 (= x76 x78)) (x149 (= x78 x64)) (x43 (= x112 x78)) (x69 (= x78 x13)) (x124 (= x25 x151)) (x131 (= x106 x13)) (x133 (= x58 x106)) (x41 (= x96 x141)) (x89 (= x87 x2)) (x135 (= x56 x106)) (x97 (= x96 x76)) (x86 (= x25 x112)) (x55 (= x96 x38)) (x35 (= x25 x6)) (x122 (= x145 x106)) (x139 (= x25 x65)) (x146 (= x78 x59)) (x154 (= x106 x90)) (x92 (= x99 x2)) (x73 (= x96 x6)) (x17 (= x78 x113)) (x77 (= x56 x78)) (x29 (= x78 x102)) (x81 (= x102 x96)) (x31 (= x123 x25)) (x153 (= x25 x145)) (x51 (= x2 x123)) (x44 (= x59 x25)) (x132 (= x106 x4)) (x20 (= x87 x78)) (x28 (= x106 x99)) (x8 (= x2 x58)) (x37 (= x95 x78)) (x100 (= x4 x78))) (and (and (or (or (and x17 x17) (or (or (or (and x100 x120) (and x49 x149)) (and x158 x36)) (and x111 x43))) (or (or (or (or (or (or (and x12 x29) (or (and x71 x69) (and x159 x159))) (and x37 x22)) (and x120 x100)) (or (or (or (or (and x77 x77) (and x69 x71)) (and x157 x20)) (and x74 x33)) (and x49 x149))) (or (or (or (and x126 x126) (or (and x157 x20) (and x12 x29))) (and x156 x146)) (and x158 x36))) (or (and x111 x43) (or (and x57 x57) (or (or (and x22 x37) (and x74 x33)) (and x146 x156)))))) (and (and (or (or (or (or (or (or (and x28 x134) (and x19 x140)) (and x155 x118)) (and x122 x122)) (and x133 x47)) (or (or (or (or (or (and x62 x110) (or (and x10 x10) (and x154 x131))) (and x19 x140)) (and x39 x132)) (or (or (or (or (and x131 x154) (and x135 x135)) (and x85 x127)) (and x134 x28)) (and x32 x50))) (or (or (and x155 x118) (or (or (and x85 x127) (and x62 x110)) (and x30 x30))) (and x48 x18)))) (or (and x63 x63) (or (and x133 x47) (or (or (and x132 x39) (and x32 x50)) (and x48 x18))))) (or (or (and x9 x9) (or (and x93 x86) (or (or (and x61 x142) (and x83 x138)) (and x144 x139)))) (or (or (and x93 x86) (or (and x153 x153) (or (and x44 x35) (or (and x98 x103) (and x31 x66))))) (or (or (or (and x61 x142) (or (or (and x150 x104) (or (and x119 x7) (and x15 x15))) (and x66 x31))) (or (and x83 x138) (or (and x103 x98) (or (or (and x119 x7) (and x1 x1)) (and x53 x124))))) (or (or (or (and x40 x40) (or (and x150 x104) (and x53 x124))) (and x35 x44)) (and x144 x139)))))) (or (or (or (and x8 x117) (or (and x101 x101) (or (or (and x129 x67) (and x51 x92)) (and x46 x21)))) (or (or (or (or (or (or (and x16 x130) (and x91 x91)) (and x75 x89)) (and x51 x92)) (and x137 x68)) (or (and x88 x116) (or (and x67 x129) (or (and x52 x136) (or (and x14 x14) (and x16 x130)))))) (or (and x128 x80) (or (or (or (and x52 x136) (and x89 x75)) (and x114 x114)) (and x21 x46))))) (or (and x125 x125) (or (or (or (and x68 x137) (and x116 x88)) (and x128 x80)) (and x8 x117)))))) (or (or (or (or (or (or (or (or (and x84 x115) (and x97 x97)) (and x81 x54)) (and x41 x3)) (and x143 x148)) (or (and x108 x45) (or (and x27 x121) (or (or (and x84 x115) (and x70 x70)) (and x24 x42))))) (or (and x109 x55) (or (and x73 x11) (or (or (and x24 x42) (and x81 x54)) (and x72 x72))))) (or (or (or (and x73 x11) (or (and x121 x27) (and x3 x41))) (and x82 x82)) (and x26 x79))) (or (and x34 x34) (or (and x26 x79) (or (or (and x45 x108) (and x148 x143)) (and x55 x109)))))))))
(assert (let ((x44 (x147 x106 x25)) (x1 (x147 x25 x106)) (x10 (x147 x96 x25)) (x66 (x147 x25 x96)) (x9 (x147 x2 x25)) (x144 (x147 x106 x2)) (x5 (x147 x2 x78)) (x135 (x147 x2 x106)) (x83 (x147 x106 x106)) (x123 (x147 x78 x25)) (x124 (x147 x25 x78)) (x131 (x147 x78 x2)) (x95 (x147 x96 x2)) (x87 (x147 x2 x96)) (x150 (x147 x25 x2)) (x93 (x147 x106 x78)) (x102 (x147 x96 x106)) (x76 (x147 x78 x96)) (x64 (x147 x78 x106)) (x86 (x147 x106 x96)) (x60 (x147 x96 x78)) (x4 (x147 x96 x96)) (x119 (x147 x25 x25)) (x13 (x147 x2 x2)) (x154 (x147 x78 x78))) (let ((x125 (= x2 x154)) (x142 (= x66 x106)) (x141 (= x106 x86)) (x118 (= x13 x25)) (x63 (= x78 x150)) (x72 (= x25 x60)) (x7 (= x1 x25)) (x92 (= x93 x78)) (x151 (= x86 x25)) (x42 (= x96 x5)) (x111 (= x86 x96)) (x117 (= x131 x78)) (x139 (= x106 x83)) (x50 (= x2 x5)) (x67 (= x131 x25)) (x53 (= x25 x124)) (x61 (= x44 x106)) (x23 (= x106 x93)) (x153 (= x106 x124)) (x80 (= x154 x25)) (x77 (= x78 x154)) (x11 (= x154 x96)) (x145 (= x135 x2)) (x8 (= x106 x154)) (x97 (= x95 x2)) (x6 (= x66 x2)) (x37 (= x124 x96)) (x21 (= x131 x106)) (x56 (= x144 x25)) (x88 (= x123 x78)) (x32 (= x5 x106)) (x128 (= x64 x78)) (x140 (= x86 x2)) (x58 (= x5 x25)) (x121 (= x60 x106)) (x14 (= x44 x78)) (x74 (= x96 x150)) (x136 (= x106 x64)) (x122 (= x13 x106)) (x43 (= x96 x9)) (x26 (= x60 x96)) (x31 (= x106 x119)) (x157 (= x96 x119)) (x65 (= x2 x83)) (x75 (= x78 x83)) (x18 (= x87 x2)) (x81 (= x96 x87)) (x54 (= x123 x96)) (x16 (= x66 x78)) (x114 (= x2 x64)) (x85 (= x2 x119)) (x84 (= x95 x106)) (x115 (= x13 x96)) (x57 (= x25 x102)) (x62 (= x106 x9)) (x28 (= x135 x106)) (x35 (= x106 x150)) (x3 (= x131 x96)) (x45 (= x96 x10)) (x47 (= x78 x1)) (x94 (= x150 x2)) (x98 (= x44 x25)) (x129 (= x78 x9)) (x89 (= x25 x64)) (x82 (= x76 x96)) (x99 (= x25 x93)) (x71 (= x76 x106)) (x36 (= x78 x102)) (x109 (= x96 x95)) (x24 (= x95 x78)) (x138 (= x25 x83)) (x137 (= x131 x2)) (x27 (= x96 x64)) (x146 (= x66 x96)) (x55 (= x2 x4)) (x149 (= x102 x106)) (x79 (= x4 x78)) (x38 (= x25 x135)) (x30 (= x2 x124)) (x40 (= x25 x66)) (x68 (= x5 x78)) (x108 (= x4 x25)) (x104 (= x25 x150)) (x34 (= x4 x96)) (x110 (= x1 x2)) (x130 (= x124 x78)) (x33 (= x2 x10)) (x101 (= x78 x13)) (x29 (= x25 x10)) (x90 (= x144 x106)) (x73 (= x60 x78)) (x12 (= x1 x96)) (x91 (= x123 x2)) (x158 (= x96 x93)) (x46 (= x135 x78)) (x52 (= x78 x144)) (x112 (= x13 x2)) (x22 (= x10 x78)) (x69 (= x25 x76)) (x103 (= x106 x1)) (x49 (= x96 x83)) (x134 (= x144 x2)) (x17 (= x25 x95)) (x70 (= x96 x135)) (x126 (= x106 x10)) (x113 (= x123 x106)) (x19 (= x2 x93)) (x155 (= x2 x9)) (x20 (= x78 x76)) (x116 (= x87 x78)) (x120 (= x2 x102)) (x100 (= x96 x144)) (x51 (= x86 x78)) (x148 (= x4 x106)) (x159 (= x2 x76)) (x127 (= x9 x25)) (x156 (= x96 x44)) (x41 (= x60 x2)) (x132 (= x87 x25)) (x133 (= x25 x123)) (x59 (= x44 x2)) (x39 (= x106 x87)) (x15 (= x25 x119)) (x48 (= x119 x78)) (x143 (= x102 x96))) (and (or (or (or (or (and x109 (not x55)) (or (and (not x148) x143) (and x45 (not x108)))) (and (not x79) x26)) (and (not x34) x34)) (or (or (and x82 (not x26)) (or (and x11 (not x73)) (or (or (and x54 (not x72)) (and (not x121) x27)) (and x3 (not x41))))) (or (or (and (not x109) x81) (or (and (not x24) x42) (or (and (not x97) x115) (or (and (not x84) x70) (and x43 (not x17)))))) (or (or (and (not x45) x146) (or (or (and (not x33) x74) (or (and x157 (not x29)) (and (not x126) x12))) (and x37 (not x22)))) (or (or (and (not x36) x158) (or (and (not x120) x100) (or (and x156 (not x57)) (and x49 (not x149))))) (and (not x143) x111)))))) (and (or (or (or (and x73 (not x20)) (or (or (and x22 (not x69)) (and x36 (not x71))) (and x24 (not x159)))) (and (not x82) x79)) (or (or (or (or (and (not x125) x117) (or (and (not x80) x88) (and x128 (not x8)))) (and x77 (not x77))) (and (not x11) x20)) (or (or (and x116 (not x3)) (or (or (or (and x129 (not x67)) (and x46 (not x21))) (and x101 (not x137))) (and x68 (not x117)))) (or (or (and x16 (not x54)) (or (or (and x63 (not x91)) (or (and x47 (not x113)) (and (not x133) x48))) (and (not x88) x130))) (or (and (not x27) x51) (or (and x92 (not x128)) (or (and (not x114) x52) (or (and x75 (not x136)) (and (not x89) x14))))))))) (and (or (or (or (or (or (and x33 (not x132)) (and (not x39) x120)) (and (not x18) x97)) (and (not x116) x41)) (and x55 (not x81))) (or (or (or (or (and (not x50) x137) (or (and (not x32) x114) (and (not x58) x91))) (and x125 (not x68))) (and x159 (not x42))) (or (or (or (and x140 (not x70)) (or (and x19 (not x46)) (or (and x134 (not x145)) (or (and x59 (not x38)) (and x65 (not x28)))))) (or (or (or (and (not x155) x94) (or (and x110 (not x62)) (and (not x127) x85))) (and (not x129) x30)) (and x6 (not x43)))) (or (and x18 (not x115)) (or (or (or (and (not x122) x145) (and (not x118) x155)) (and (not x112) x112)) (and (not x101) x50)))))) (and (or (or (or (or (and x17 (not x6)) (or (and (not x40) x29) (and (not x142) x57))) (and (not x16) x72)) (and (not x146) x108)) (or (or (and (not x37) x69) (or (or (and (not x30) x67) (or (and (not x53) x133) (and (not x153) x89))) (and (not x130) x80))) (or (or (or (and x151 (not x12)) (or (and x99 (not x47)) (or (and (not x110) x56) (or (and x98 (not x7)) (and (not x103) x138))))) (or (or (and (not x48) x53) (or (or (and (not x15) x15) (and x7 (not x31))) (and (not x85) x104))) (and x40 (not x157)))) (or (and x132 (not x74)) (or (and (not x63) x58) (or (and x118 (not x94)) (or (and (not x104) x127) (and x38 (not x35))))))))) (or (or (or (or (or (or (and (not x134) x122) (or (and (not x56) x62) (and (not x90) x28))) (and (not x52) x32)) (and x39 (not x100))) (or (or (and x141 (not x49)) (or (or (or (and x61 (not x138)) (and x139 (not x139))) (and (not x65) x90)) (and x23 (not x75)))) (or (or (or (or (and x31 (not x98)) (and x103 (not x61))) (and (not x59) x35)) (and (not x14) x153)) (and x142 (not x156))))) (or (and x71 (not x158)) (or (and (not x92) x8) (or (and (not x19) x21) (or (and x113 (not x99)) (and x136 (not x23))))))) (or (and x148 (not x111)) (or (and x121 (not x51)) (or (or (and (not x141) x149) (and (not x151) x126)) (and x84 (not x140)))))))))))))
(assert (or (not (= x96 (x147 (x147 x96 x96) x96))) (or (or (or (not (= (x147 (x147 x106 x106) x106) x106)) (not (= (x147 (x147 x25 x25) x25) x25))) (not (= x2 (x147 (x147 x2 x2) x2)))) (not (= x78 (x147 (x147 x78 x78) x78))))))
(check-sat)
(exit)
